c random assignment satisfied 176/430 clauses
o 254
c flipped 6/100 variables (k=6)
c solution improved by 1 clause
o 253
c flipped 4/100 variables (k=6)
c solution improved by 26 clauses
o 227
c flipped 4/100 variables (k=6)
c solution improved by 1 clause
o 226
c flipped 6/100 variables (k=6)
c solution improved by 61 clauses
o 165
c flipped 6/100 variables (k=6)
c solution improved by 14 clauses
o 151
c flipped 6/100 variables (k=6)
c solution improved by 1 clause
o 150
c flipped 6/100 variables (k=6)
c solution improved by 2 clauses
o 148
c flipped 6/100 variables (k=6)
c solution improved by 6 clauses
o 142
c flipped 6/100 variables (k=6)
c solution improved by 4 clauses
o 138
c flipped 6/100 variables (k=6)
c solution improved by 1 clause
o 137
c flipped 6/100 variables (k=6)
c solution improved by 9 clauses
o 128
c flipped 6/100 variables (k=6)
c solution improved by 17 clauses
o 111
c flipped 6/100 variables (k=6)
c solution improved by 1 clause
o 110
c flipped 6/100 variables (k=6)
c solution improved by 4 clauses
o 106
c flipped 6/100 variables (k=6)
c solution improved by 11 clauses
o 95
c flipped 6/100 variables (k=6)
c solution improved by 8 clauses
o 87
c flipped 6/100 variables (k=6)
c solution improved by 5 clauses
o 82
c flipped 6/100 variables (k=6)
c solution improved by 16 clauses
o 66
c flipped 6/100 variables (k=6)
c solution improved by 15 clauses
o 51
c flipped 6/100 variables (k=6)
c solution improved by 8 clauses
o 43
c flipped 6/100 variables (k=6)
c solution improved by 8 clauses
o 35
c flipped 6/100 variables (k=6)
c solution improved by 2 clauses
o 33
c flipped 6/100 variables (k=6)
c solution improved by 1 clause
o 32
c flipped 6/100 variables (k=6)
c solution improved by 8 clauses
o 24
c flipped 6/100 variables (k=6)
c solution improved by 5 clauses
o 19
c flipped 6/100 variables (k=6)
c solution improved by 4 clauses
o 15
c flipped 6/100 variables (k=6)
c solution improved by 2 clauses
o 13
c flipped 6/100 variables (k=6)
c solution improved by 1 clause
o 12
c flipped 6/100 variables (k=6)
c solution improved by 1 clause
o 11
c flipped 6/100 variables (k=6)
c solution improved by 1 clause
o 10
c flipped 6/100 variables (k=6)
c solution improved by 1 clause
o 9
c flipped 6/100 variables (k=6)
c solution improved by 1 clause
o 8
c flipped 6/100 variables (k=6)
c solution improved by 1 clause
o 7
c flipped 6/100 variables (k=6)
c solution improved by 1 clause
o 6
c flipped 6/100 variables (k=6)
c solution improved by 1 clause
o 5
c flipped 6/100 variables (k=6)
c solution improved by 1 clause
o 4
c flipped 6/100 variables (k=6)
c solution improved by 1 clause
o 3
v 1111100101100100111110001110000010100010000110011011101101100110110101010000100101011101100011010101
c stuck at 427/430 clauses with k=6
s UNKNOWN
